NAME: n80q15J.tsp, 80 nodes, semilla 999
COMMENT: Problema aleatorio de norma euclidea
DIMENSION: 80
CAPACITY: 15
EDGE_WEIGHT_TYPE: EUC_2D
NODE_COORD_SECTION
1   0.0000   0.0000
2 -258.0000 -199.0000
3 244.0000 486.0000
4 -59.0000 464.0000
5 -209.0000 245.0000
6 -191.0000 -274.0000
7  68.0000 436.0000
8 490.0000 -252.0000
9 -97.0000  72.0000
10 -32.0000 165.0000
11 -330.0000 146.0000
12 353.0000 302.0000
13 -362.0000 224.0000
14 -270.0000 -430.0000
15 414.0000 421.0000
16 -237.0000 -276.0000
17 106.0000   3.0000
18 360.0000 -189.0000
19 371.0000 269.0000
20 390.0000 421.0000
21 173.0000 -359.0000
22 -149.0000 -267.0000
23 -15.0000 478.0000
24 352.0000  15.0000
25 -444.0000 -29.0000
26 -341.0000 -49.0000
27 440.0000 136.0000
28 480.0000 -228.0000
29 -447.0000 -367.0000
30 -127.0000 -406.0000
31  51.0000 -296.0000
32 -178.0000 120.0000
33 -294.0000 -294.0000
34 -394.0000 -465.0000
35 -247.0000 261.0000
36 254.0000 117.0000
37 -353.0000 -497.0000
38 353.0000  89.0000
39 -169.0000 -69.0000
40 257.0000 -377.0000
41 -272.0000 464.0000
42 116.0000 126.0000
43 220.0000 -141.0000
44 483.0000 425.0000
45 284.0000 -90.0000
46 -352.0000 275.0000
47 -108.0000 -175.0000
48 118.0000 134.0000
49 459.0000 -408.0000
50 -467.0000 453.0000
51 -274.0000 -355.0000
52 173.0000 200.0000
53 198.0000 103.0000
54 395.0000 -272.0000
55 479.0000 -22.0000
56 -422.0000 308.0000
57 185.0000 385.0000
58 100.0000 -188.0000
59 380.0000 -78.0000
60 130.0000 -420.0000
61  40.0000 -359.0000
62 224.0000 107.0000
63 -469.0000 240.0000
64 307.0000  20.0000
65 -257.0000 422.0000
66 143.0000 -372.0000
67 459.0000 -315.0000
68 -419.0000 126.0000
69 -208.0000 -432.0000
70 234.0000 243.0000
71 399.0000 348.0000
72 -50.0000 -386.0000
73 145.0000 -42.0000
74 315.0000 -217.0000
75 119.0000 477.0000
76 -252.0000 -242.0000
77  11.0000  34.0000
78 408.0000 475.0000
79  87.0000 486.0000
80 303.0000  75.0000
DISPLAY_DATA_SECTION:
 1  250  250
 2  121  150
 3  372  493
 4  220  482
 5  145  372
 6  154  113
 7  284  468
 8  495  124
 9  201  286
10  234  332
11   85  323
12  426  401
13   69  362
14  115   35
15  457  460
16  131  112
17  303  251
18  430  155
19  435  384
20  445  460
21  336   70
22  175  116
23  242  489
24  426  257
25   28  235
26   79  225
27  470  318
28  490  136
29   26   66
30  186   47
31  275  102
32  161  310
33  103  103
34   53   17
35  126  380
36  377  308
37   73    1
38  426  294
39  165  215
40  378   61
41  114  482
42  308  313
43  360  179
44  491  462
45  392  205
46   74  387
47  196  162
48  309  317
49  479   46
50   16  476
51  113   72
52  336  350
53  349  301
54  447  114
55  489  239
56   39  404
57  342  442
58  300  156
59  440  211
60  315   40
61  270   70
62  362  303
63   15  370
64  403  260
65  121  461
66  321   64
67  479   92
68   40  313
69  146   34
70  367  371
71  449  424
72  225   57
73  322  229
74  407  141
75  309  488
76  124  129
77  255  267
78  454  487
79  293  493
80  401  287
DEMAND_SECTION
1 -7
2 10
3 5
4 -1
5 6
6 0
7 -6
8 -1
9 -3
10 1
11 -5
12 8
13 -1
14 -6
15 -7
16 -8
17 7
18 -4
19 1
20 5
21 4
22 10
23 -9
24 6
25 -5
26 -4
27 -1
28 -6
29 -2
30 2
31 10
32 8
33 10
34 0
35 -5
36 -3
37 -7
38 1
39 6
40 -2
41 -7
42 3
43 5
44 -6
45 1
46 7
47 -8
48 3
49 2
50 3
51 2
52 -5
53 -5
54 5
55 -1
56 -6
57 1
58 2
59 -8
60 -3
61 5
62 -2
63 5
64 0
65 5
66 -2
67 -8
68 -4
69 9
70 2
71 -7
72 0
73 1
74 -2
75 7
76 -6
77 0
78 9
79 -6
80 2
EOF